1	16	1	8	29	100	0	0	0	0	0	0
2000	1	0	0	0	0	0	0	0	0	0	0
250	1	0	229.26	0.13	1	0	0	0	0	0	0
250	1	0	229.26	0.13	1	0	0	0	0	0	0
250	1	0	229.26	0.13	1	0	0	0	0	0	0
250	1	0	229.26	0.13	1	0	0	0	0	0	0
250	1	0	229.26	0.13	1	0	0	0	0	0	0
250	1	0	229.26	0.13	1	0	0	0	0	0	0
250	1	0	229.26	0.13	1	0	0	0	0	0	0
250	1	0	229.26	0.13	1	0	0	0	0	0	0
250	1	0	229.26	0.13	1	0	0	0	0	0	0
250	1	0	229.26	0.13	1	0	0	0	0	0	0
250	1	0	229.26	0.13	1	0	0	0	0	0	0
250	1	0	229.26	0.13	1	0	0	0	0	0	0
250	1	0	229.26	0.13	1	0	0	0	0	0	0
250	1	0	229.26	0.13	1	0	0	0	0	0	0
250	1	0	229.26	0.13	1	0	0	0	0	0	0
250	1	0	229.26	0.13	1	0	0	0	0	0	0
50	150	0	0	0	0	960	0	0	99999	0	0
25	25	0	0	0	0	960	0	0	99999	0	0
50	25	0	0	0	0	960	0	0	99999	0	0
75	25	0	0	0	0	960	0	0	99999	0	0
25	50	0	0	0	0	960	0	0	99999	0	0
75	50	0	0	0	0	960	0	0	99999	0	0
25	75	0	0	0	0	960	0	0	99999	0	0
50	75	0	0	0	0	960	0	0	99999	0	0
75	75	0	0	0	0	960	0	0	99999	0	0
25	25	0	0	0	0	960	0	0	0	0	0
50	25	0	0	0	0	960	0	0	0	0	0
75	25	0	0	0	0	960	0	0	0	0	0
25	50	0	0	0	0	960	0	0	0	0	0
75	50	0	0	0	0	960	0	0	0	0	0
25	75	0	0	0	0	960	0	0	0	0	0
50	75	0	0	0	0	960	0	0	0	0	0
75	75	0	0	0	0	960	0	0	0	0	0
40      50      0       0       0       0       240     0       0       0       0       0
73      52      0       0       0       0       240     0       0       0       0       0
90      55      0       0       0       0       240     0       0       0       0       0
55      79      0       0       0       0       240     0       0       0       0       0
69      89      0       0       0       0       240     0       0       0       0       0
32      80      0       0       0       0       240     0       0       0       0       0
39      96      0       0       0       0       240     0       0       0       0       0
23      80      0       0       0       0       240     0       0       0       0       0
4	83	0	0	0	0	960	0	0	0	0	0
18	58	0	0	0	0	960	0	0	0	0	0
1	56	0	0	0	0	960	0	0	0	0	0
13	31	0	0	0	0	960	0	0	0	0	0
-5	38	0	0	0	0	960	0	0	0	0	0
26	37	0	0	0	0	960	0	0	0	0	0
28	13	0	0	0	0	960	0	0	0	0	0
39	31	0	0	0	0	960	0	0	0	0	0
48	11	0	0	0	0	960	0	0	0	0	0
59	17	0	0	0	0	960	0	0	0	0	0
73	23	0	0	0	0	960	0	0	0	0	0
74	32	0	0	0	0	960	0	0	0	0	0
90	44	0	0	0	0	960	0	0	0	0	0
25	85	20	6	14	341	581	10	0	0	0	0
22	75	30	9	21	132	372	10	0	0	0	0
22	85	10	3	7	379	619	10	0	0	0	0
20	80	40	10	30	753	993	10	0	0	0	0
20	85	20	5	15	770	1010	10	0	0	0	0
18	75	20	5	15	299	539	10	0	0	0	0
15	75	20	4	16	170	410	10	0	0	0	0
15	80	10	2	8	481	721	10	0	0	0	0
10	35	20	6	14	695	935	10	0	0	0	0
10	40	30	8	22	447	687	10	0	0	0	0
8	40	40	8	32	442	682	10	0	0	0	0
8	45	20	4	16	778	1018	10	0	0	0	0
5	35	10	1	9	140	380	10	0	0	0	0
5	45	10	1	9	239	479	10	0	0	0	0
2	40	20	1	19	771	1011	10	0	0	0	0
0	40	20	0	20	221	461	10	0	0	0	0
0	45	20	0	20	217	457	10	0	0	0	0
44	5	20	2	18	765	1005	10	0	0	0	0
42	10	40	10	30	142	382	10	0	0	0	0
42	15	10	4	6	249	489	10	0	0	0	0
40	5	10	1	9	563	803	10	0	0	0	0
40	15	40	15	25	662	902	10	0	0	0	0
38	5	30	4	26	310	550	10	0	0	0	0
38	15	10	4	6	202	442	10	0	0	0	0
35	5	20	3	17	147	387	10	0	0	0	0
95	30	30	9	21	752	992	10	0	0	0	0
95	35	20	7	13	716	956	10	0	0	0	0
92	30	10	3	7	194	434	10	0	0	0	0
90	35	10	4	6	542	782	10	0	0	0	0
88	30	10	3	7	457	697	10	0	0	0	0
88	35	20	8	12	760	1000	10	0	0	0	0
87	30	10	3	7	170	410	10	0	0	0	0
85	25	10	3	7	759	999	10	0	0	0	0
85	35	30	12	18	157	397	10	0	0	0	0
67	85	20	16	4	688	928	10	0	0	0	0
65	85	40	31	9	558	798	10	0	0	0	0
65	82	10	8	2	293	533	10	0	0	0	0
62	80	30	23	7	146	386	10	0	0	0	0
60	80	10	8	2	774	1014	10	0	0	0	0
60	85	30	21	9	553	793	10	0	0	0	0
58	75	20	15	5	298	538	10	0	0	0	0
55	80	10	7	3	561	801	10	0	0	0	0
55	85	20	13	7	143	383	10	0	0	0	0
55	82	10	7	3	491	731	10	0	0	0	0
20	82	10	2	8	687	927	10	0	0	0	0
18	80	10	2	8	773	1013	10	0	0	0	0
2	45	10	0	10	300	540	10	0	0	0	0
42	5	10	1	9	147	387	10	0	0	0	0
42	12	10	3	7	249	489	10	0	0	0	0
72	35	30	15	15	775	1015	10	0	0	0	0
55	20	19	7	12	523	763	10	0	0	0	0
25	30	3	3	0	594	834	10	0	0	0	0
20	50	5	2	3	308	548	10	0	0	0	0
55	60	16	15	1	598	838	10	0	0	0	0
30	60	16	8	8	702	942	10	0	0	0	0
50	35	19	13	6	225	465	10	0	0	0	0
30	25	23	19	4	267	507	10	0	0	0	0
15	10	20	13	7	484	724	10	0	0	0	0
10	20	19	10	9	696	936	10	0	0	0	0
15	60	17	4	13	128	368	10	0	0	0	0
45	65	9	6	3	659	899	10	0	0	0	0
65	35	3	2	1	179	419	10	0	0	0	0
65	20	6	2	4	357	597	10	0	0	0	0
45	30	17	11	6	669	909	10	0	0	0	0
35	40	16	14	2	113	353	10	0	0	0	0
41	37	16	14	2	625	865	10	0	0	0	0
64	42	9	6	3	127	367	10	0	0	0	0
40	60	21	14	7	785	1025	10	0	0	0	0
31	52	27	16	11	111	351	10	0	0	0	0
35	69	23	12	11	439	679	10	0	0	0	0
65	55	14	12	2	785	1025	10	0	0	0	0
63	65	8	8	0	372	612	10	0	0	0	0
2	60	5	0	5	331	571	10	0	0	0	0
20	20	8	8	0	774	1014	10	0	0	0	0
5	5	16	16	0	425	665	10	0	0	0	0
60	12	31	6	25	144	384	10	0	0	0	0
23	3	7	1	6	151	391	10	0	0	0	0
8	56	27	4	23	393	633	10	0	0	0	0
6	68	30	3	27	140	380	10	0	0	0	0
47	47	13	13	0	390	630	10	0	0	0	0
49	58	10	8	2	798	1038	10	0	0	0	0
27	43	9	6	3	550	790	10	0	0	0	0
37	31	14	12	2	474	714	10	0	0	0	0
57	29	18	9	9	783	1023	10	0	0	0	0
63	23	2	1	1	139	379	10	0	0	0	0
21	24	28	25	3	414	654	10	0	0	0	0
12	24	13	7	6	422	662	10	0	0	0	0
24	58	19	8	11	602	842	10	0	0	0	0
67	5	25	2	23	758	998	10	0	0	0	0
37	47	6	5	1	121	361	10	0	0	0	0
49	42	13	11	2	480	720	10	0	0	0	0
53	43	14	11	3	736	976	10	0	0	0	0
61	52	3	3	0	358	598	10	0	0	0	0
57	48	23	19	4	760	1000	10	0	0	0	0
56	37	6	4	2	570	810	10	0	0	0	0
55	54	26	26	0	318	558	10	0	0	0	0
4	18	35	8	27	762	1002	10	0	0	0	0
26	52	9	5	4	259	499	10	0	0	0	0
26	35	15	11	4	122	362	10	0	0	0	0
31	67	3	1	2	509	749	10	0	0	0	0
